
units          real
atom_style     full
boundary       p p p

pair_style     lj/cut     20.0000
pair_modify    tail no
special_bonds  lj 0.0 0.0 1.0
bond_style     class2
angle_style    class2
dihedral_style opls
improper_style none

read_data      origin.data

pair_coeff     1   1   1.8  6.3
pair_coeff     1   2   1.4  5.7
pair_coeff     2   2   0.4  4.7

thermo_style   multi
thermo         100
min_style      cg
minimize       1.0e-4 1.0e-6 5000 1000

compute        Ei all inter all
variable       T equal temp
variable       P equal press
variable       E equal epair
variable       den equal density

fix            sd all langevin 300 300 2000 324324232
fix            1 all nph iso 1 1 2000
fix            2 all ave/time 5000 40 200000 v_T v_P v_E v_den file equ
velocity       all create 300 1166140691 mom yes rot yes dist gaussian
thermo         1000
thermo_style   custom step temp press pe v_T v_E 
dump           1 all custom 1000 equ.atom id type xu yu zu
dump_modify    1 sort id
reset_timestep 0
timestep       1
run            500000
write_data     equ.data
